NAME 
OBJSENSE MAX
ROWS
 N  OBJ
 L  packing[0]
 L  packing[1]
 L  packing[2]
 L  packing[3]
 L  packing[4]
 L  packing[5]
 L  packing[6]
 L  packing[7]
 L  packing[8]
 L  packing[9]
 L  packing[10]
 L  packing[11]
 L  packing[12]
 L  packing[13]
 L  packing[14]
 L  packing[15]
 L  packing[16]
 L  packing[17]
 L  packing[18]
 L  packing[19]
 L  packing[20]
 L  packing[21]
 L  packing[22]
 L  packing[23]
 L  packing[24]
 L  packing[25]
 L  packing[26]
 L  packing[27]
 L  packing[28]
 L  packing[29]
 L  packing[30]
 L  packing[31]
 L  packing[32]
 L  packing[33]
 L  packing[34]
 L  packing[35]
 L  packing[36]
 L  packing[37]
 L  packing[38]
 L  packing[39]
 L  packing[40]
 L  packing[41]
 L  packing[42]
 L  packing[43]
 L  packing[44]
 L  packing[45]
 L  packing[46]
 L  packing[47]
 L  packing[48]
 L  packing[49]
 L  R63     
COLUMNS
    MARKER    'MARKER'                 'INTORG'
    x[1]      OBJ       41
    x[1]      packing[0]  195
    x[1]      packing[1]  160
    x[1]      packing[3]  69
    x[1]      packing[4]  148
    x[1]      packing[5]  52
    x[1]      packing[6]  109
    x[1]      packing[7]  130
    x[1]      packing[8]  36
    x[1]      packing[11]  116
    x[1]      packing[12]  134
    x[1]      packing[13]  183
    x[1]      packing[18]  192
    x[1]      packing[19]  63
    x[1]      packing[20]  175
    x[1]      packing[22]  114
    x[1]      packing[23]  14
    x[1]      packing[24]  49
    x[1]      packing[25]  82
    x[1]      packing[26]  97
    x[1]      packing[27]  47
    x[1]      packing[28]  46
    x[1]      packing[29]  47
    x[1]      packing[30]  29
    x[1]      packing[31]  89
    x[1]      packing[33]  104
    x[1]      packing[34]  63
    x[1]      packing[35]  69
    x[1]      packing[36]  83
    x[1]      packing[37]  37
    x[1]      packing[38]  65
    x[1]      packing[43]  33
    x[1]      packing[44]  125
    x[1]      packing[46]  59
    x[1]      packing[48]  13
    x[1]      packing[49]  161
    x[2]      OBJ       26
    x[2]      packing[0]  21
    x[2]      packing[1]  46
    x[2]      packing[3]  67
    x[2]      packing[4]  12
    x[2]      packing[5]  79
    x[2]      packing[6]  39
    x[2]      packing[7]  78
    x[2]      packing[8]  177
    x[2]      packing[9]  190
    x[2]      packing[11]  116
    x[2]      packing[12]  65
    x[2]      packing[13]  186
    x[2]      packing[15]  36
    x[2]      packing[16]  72
    x[2]      packing[17]  146
    x[2]      packing[18]  167
    x[2]      packing[19]  121
    x[2]      packing[20]  178
    x[2]      packing[21]  49
    x[2]      packing[22]  163
    x[2]      packing[26]  84
    x[2]      packing[27]  112
    x[2]      packing[28]  189
    x[2]      packing[29]  50
    x[2]      packing[30]  155
    x[2]      packing[31]  110
    x[2]      packing[33]  21
    x[2]      packing[35]  111
    x[2]      packing[36]  62
    x[2]      packing[37]  49
    x[2]      packing[38]  118
    x[2]      packing[42]  148
    x[2]      packing[43]  50
    x[2]      packing[44]  165
    x[2]      packing[45]  141
    x[2]      packing[46]  39
    x[2]      packing[47]  110
    x[2]      packing[48]  124
    x[2]      packing[49]  24
    x[2]      R63       1
    x[3]      OBJ       96
    x[3]      packing[0]  155
    x[3]      packing[2]  21
    x[3]      packing[5]  47
    x[3]      packing[6]  32
    x[3]      packing[7]  143
    x[3]      packing[8]  43
    x[3]      packing[9]  161
    x[3]      packing[10]  78
    x[3]      packing[11]  164
    x[3]      packing[12]  24
    x[3]      packing[14]  113
    x[3]      packing[15]  129
    x[3]      packing[16]  24
    x[3]      packing[17]  24
    x[3]      packing[18]  133
    x[3]      packing[19]  170
    x[3]      packing[20]  85
    x[3]      packing[21]  89
    x[3]      packing[23]  62
    x[3]      packing[24]  34
    x[3]      packing[26]  50
    x[3]      packing[27]  196
    x[3]      packing[28]  199
    x[3]      packing[29]  2
    x[3]      packing[30]  55
    x[3]      packing[35]  12
    x[3]      packing[36]  62
    x[3]      packing[37]  103
    x[3]      packing[38]  52
    x[3]      packing[39]  86
    x[3]      packing[40]  126
    x[3]      packing[42]  21
    x[3]      packing[43]  11
    x[3]      packing[44]  17
    x[3]      packing[45]  130
    x[3]      packing[46]  58
    x[3]      packing[47]  119
    x[3]      packing[48]  113
    x[3]      packing[49]  194
    x[3]      R63       1
    x[4]      OBJ       9
    x[4]      packing[0]  88
    x[4]      packing[2]  131
    x[4]      packing[3]  5
    x[4]      packing[4]  51
    x[4]      packing[5]  137
    x[4]      packing[9]  68
    x[4]      packing[10]  31
    x[4]      packing[13]  89
    x[4]      packing[14]  150
    x[4]      packing[16]  115
    x[4]      packing[17]  173
    x[4]      packing[18]  197
    x[4]      packing[19]  181
    x[4]      packing[20]  174
    x[4]      packing[21]  82
    x[4]      packing[22]  14
    x[4]      packing[23]  14
    x[4]      packing[24]  127
    x[4]      packing[25]  47
    x[4]      packing[27]  101
    x[4]      packing[28]  138
    x[4]      packing[29]  30
    x[4]      packing[30]  187
    x[4]      packing[31]  183
    x[4]      packing[33]  101
    x[4]      packing[34]  117
    x[4]      packing[35]  147
    x[4]      packing[36]  153
    x[4]      packing[37]  50
    x[4]      packing[38]  52
    x[4]      packing[40]  164
    x[4]      packing[41]  94
    x[4]      packing[43]  76
    x[4]      packing[44]  78
    x[4]      packing[45]  176
    x[4]      packing[46]  77
    x[4]      packing[47]  111
    x[4]      packing[48]  47
    x[4]      packing[49]  74
    x[5]      OBJ       59
    x[5]      packing[0]  9
    x[5]      packing[2]  152
    x[5]      packing[3]  115
    x[5]      packing[6]  129
    x[5]      packing[7]  143
    x[5]      packing[8]  125
    x[5]      packing[9]  182
    x[5]      packing[11]  83
    x[5]      packing[12]  34
    x[5]      packing[13]  54
    x[5]      packing[14]  119
    x[5]      packing[15]  18
    x[5]      packing[16]  185
    x[5]      packing[17]  1
    x[5]      packing[18]  188
    x[5]      packing[19]  51
    x[5]      packing[21]  128
    x[5]      packing[22]  147
    x[5]      packing[23]  170
    x[5]      packing[26]  28
    x[5]      packing[28]  31
    x[5]      packing[29]  131
    x[5]      packing[30]  69
    x[5]      packing[32]  93
    x[5]      packing[33]  30
    x[5]      packing[34]  86
    x[5]      packing[35]  125
    x[5]      packing[38]  198
    x[5]      packing[39]  87
    x[5]      packing[40]  32
    x[5]      packing[41]  195
    x[5]      packing[43]  148
    x[5]      packing[45]  132
    x[5]      packing[46]  134
    x[5]      packing[48]  100
    x[6]      OBJ       39
    x[6]      packing[0]  32
    x[6]      packing[1]  23
    x[6]      packing[5]  190
    x[6]      packing[6]  25
    x[6]      packing[7]  141
    x[6]      packing[8]  176
    x[6]      packing[11]  106
    x[6]      packing[12]  59
    x[6]      packing[13]  196
    x[6]      packing[14]  135
    x[6]      packing[15]  70
    x[6]      packing[18]  154
    x[6]      packing[20]  115
    x[6]      packing[21]  52
    x[6]      packing[22]  174
    x[6]      packing[23]  137
    x[6]      packing[24]  143
    x[6]      packing[25]  103
    x[6]      packing[26]  86
    x[6]      packing[27]  156
    x[6]      packing[30]  111
    x[6]      packing[31]  182
    x[6]      packing[32]  187
    x[6]      packing[33]  104
    x[6]      packing[35]  130
    x[6]      packing[36]  2
    x[6]      packing[37]  99
    x[6]      packing[39]  152
    x[6]      packing[40]  57
    x[6]      packing[41]  146
    x[6]      packing[42]  152
    x[6]      packing[43]  182
    x[6]      packing[44]  59
    x[6]      packing[45]  171
    x[6]      packing[46]  86
    x[6]      packing[47]  127
    x[6]      packing[48]  40
    x[6]      packing[49]  20
    x[7]      OBJ       44
    x[7]      packing[0]  166
    x[7]      packing[1]  50
    x[7]      packing[5]  191
    x[7]      packing[7]  41
    x[7]      packing[8]  14
    x[7]      packing[9]  16
    x[7]      packing[13]  176
    x[7]      packing[16]  44
    x[7]      packing[17]  124
    x[7]      packing[18]  130
    x[7]      packing[19]  44
    x[7]      packing[21]  94
    x[7]      packing[22]  92
    x[7]      packing[23]  125
    x[7]      packing[24]  89
    x[7]      packing[25]  76
    x[7]      packing[27]  162
    x[7]      packing[28]  61
    x[7]      packing[29]  101
    x[7]      packing[30]  153
    x[7]      packing[31]  78
    x[7]      packing[32]  190
    x[7]      packing[33]  54
    x[7]      packing[34]  138
    x[7]      packing[35]  179
    x[7]      packing[36]  3
    x[7]      packing[37]  61
    x[7]      packing[38]  199
    x[7]      packing[40]  133
    x[7]      packing[41]  63
    x[7]      packing[42]  152
    x[7]      packing[43]  117
    x[7]      packing[44]  94
    x[7]      packing[46]  85
    x[7]      packing[47]  186
    x[7]      packing[48]  79
    x[7]      packing[49]  14
    x[8]      OBJ       154
    x[8]      packing[0]  134
    x[8]      packing[1]  40
    x[8]      packing[2]  12
    x[8]      packing[6]  8
    x[8]      packing[8]  35
    x[8]      packing[9]  33
    x[8]      packing[10]  23
    x[8]      packing[12]  26
    x[8]      packing[13]  31
    x[8]      packing[15]  121
    x[8]      packing[16]  1
    x[8]      packing[17]  113
    x[8]      packing[18]  100
    x[8]      packing[20]  79
    x[8]      packing[21]  56
    x[8]      packing[24]  66
    x[8]      packing[26]  39
    x[8]      packing[27]  129
    x[8]      packing[28]  47
    x[8]      packing[29]  82
    x[8]      packing[30]  1
    x[8]      packing[31]  34
    x[8]      packing[32]  196
    x[8]      packing[35]  165
    x[8]      packing[36]  122
    x[8]      packing[38]  15
    x[8]      packing[39]  120
    x[8]      packing[40]  187
    x[8]      packing[41]  80
    x[8]      packing[42]  68
    x[8]      packing[43]  84
    x[8]      packing[46]  108
    x[8]      packing[47]  148
    x[9]      OBJ       73
    x[9]      packing[0]  39
    x[9]      packing[2]  47
    x[9]      packing[3]  18
    x[9]      packing[4]  177
    x[9]      packing[5]  136
    x[9]      packing[6]  77
    x[9]      packing[8]  186
    x[9]      packing[9]  140
    x[9]      packing[12]  149
    x[9]      packing[13]  176
    x[9]      packing[14]  148
    x[9]      packing[15]  134
    x[9]      packing[16]  77
    x[9]      packing[17]  18
    x[9]      packing[18]  116
    x[9]      packing[19]  5
    x[9]      packing[20]  21
    x[9]      packing[21]  131
    x[9]      packing[22]  28
    x[9]      packing[24]  47
    x[9]      packing[25]  83
    x[9]      packing[26]  173
    x[9]      packing[27]  10
    x[9]      packing[28]  40
    x[9]      packing[29]  93
    x[9]      packing[31]  153
    x[9]      packing[32]  72
    x[9]      packing[33]  94
    x[9]      packing[37]  166
    x[9]      packing[38]  89
    x[9]      packing[39]  16
    x[9]      packing[40]  137
    x[9]      packing[41]  119
    x[9]      packing[42]  130
    x[9]      packing[43]  12
    x[9]      packing[44]  106
    x[9]      packing[48]  7
    x[10]     OBJ       200
    x[10]     packing[0]  136
    x[10]     packing[1]  87
    x[10]     packing[2]  179
    x[10]     packing[3]  23
    x[10]     packing[4]  126
    x[10]     packing[5]  46
    x[10]     packing[6]  54
    x[10]     packing[7]  110
    x[10]     packing[10]  185
    x[10]     packing[11]  92
    x[10]     packing[12]  188
    x[10]     packing[13]  10
    x[10]     packing[14]  123
    x[10]     packing[17]  9
    x[10]     packing[18]  90
    x[10]     packing[19]  119
    x[10]     packing[21]  101
    x[10]     packing[22]  148
    x[10]     packing[23]  103
    x[10]     packing[25]  172
    x[10]     packing[26]  14
    x[10]     packing[29]  146
    x[10]     packing[31]  74
    x[10]     packing[32]  51
    x[10]     packing[33]  48
    x[10]     packing[34]  193
    x[10]     packing[36]  148
    x[10]     packing[37]  158
    x[10]     packing[38]  66
    x[10]     packing[39]  121
    x[10]     packing[40]  99
    x[10]     packing[41]  190
    x[10]     packing[43]  189
    x[10]     packing[44]  186
    x[10]     packing[45]  101
    x[10]     packing[46]  71
    x[10]     packing[48]  149
    x[10]     packing[49]  26
    x[10]     R63       1
    x[11]     OBJ       14
    x[11]     packing[0]  14
    x[11]     packing[1]  77
    x[11]     packing[2]  196
    x[11]     packing[3]  101
    x[11]     packing[5]  30
    x[11]     packing[6]  114
    x[11]     packing[7]  140
    x[11]     packing[8]  168
    x[11]     packing[9]  31
    x[11]     packing[10]  41
    x[11]     packing[11]  100
    x[11]     packing[12]  49
    x[11]     packing[13]  194
    x[11]     packing[14]  178
    x[11]     packing[16]  46
    x[11]     packing[17]  80
    x[11]     packing[18]  140
    x[11]     packing[19]  116
    x[11]     packing[20]  95
    x[11]     packing[21]  114
    x[11]     packing[22]  54
    x[11]     packing[24]  73
    x[11]     packing[25]  25
    x[11]     packing[26]  79
    x[11]     packing[29]  30
    x[11]     packing[30]  42
    x[11]     packing[32]  126
    x[11]     packing[35]  75
    x[11]     packing[36]  161
    x[11]     packing[39]  131
    x[11]     packing[41]  103
    x[11]     packing[42]  65
    x[11]     packing[43]  197
    x[11]     packing[44]  87
    x[11]     packing[45]  129
    x[11]     packing[46]  61
    x[11]     packing[47]  125
    x[11]     packing[48]  48
    x[11]     packing[49]  122
    x[12]     OBJ       26
    x[12]     packing[2]  94
    x[12]     packing[5]  127
    x[12]     packing[6]  145
    x[12]     packing[9]  156
    x[12]     packing[10]  33
    x[12]     packing[12]  171
    x[12]     packing[13]  81
    x[12]     packing[14]  123
    x[12]     packing[15]  65
    x[12]     packing[16]  55
    x[12]     packing[17]  68
    x[12]     packing[18]  47
    x[12]     packing[20]  50
    x[12]     packing[21]  106
    x[12]     packing[22]  173
    x[12]     packing[23]  9
    x[12]     packing[24]  58
    x[12]     packing[25]  124
    x[12]     packing[26]  108
    x[12]     packing[27]  44
    x[12]     packing[29]  50
    x[12]     packing[31]  12
    x[12]     packing[32]  95
    x[12]     packing[33]  25
    x[12]     packing[35]  25
    x[12]     packing[37]  120
    x[12]     packing[38]  148
    x[12]     packing[40]  141
    x[12]     packing[41]  69
    x[12]     packing[42]  118
    x[12]     packing[43]  176
    x[12]     packing[44]  176
    x[12]     packing[45]  28
    x[12]     packing[46]  106
    x[12]     packing[47]  192
    x[12]     packing[48]  16
    x[12]     packing[49]  127
    x[13]     OBJ       121
    x[13]     packing[0]  75
    x[13]     packing[1]  49
    x[13]     packing[3]  29
    x[13]     packing[4]  119
    x[13]     packing[5]  138
    x[13]     packing[6]  192
    x[13]     packing[7]  55
    x[13]     packing[8]  151
    x[13]     packing[12]  35
    x[13]     packing[13]  168
    x[13]     packing[14]  175
    x[13]     packing[15]  112
    x[13]     packing[16]  197
    x[13]     packing[17]  46
    x[13]     packing[18]  57
    x[13]     packing[19]  187
    x[13]     packing[20]  171
    x[13]     packing[21]  138
    x[13]     packing[22]  41
    x[13]     packing[23]  89
    x[13]     packing[28]  82
    x[13]     packing[29]  29
    x[13]     packing[30]  7
    x[13]     packing[31]  199
    x[13]     packing[34]  109
    x[13]     packing[35]  58
    x[13]     packing[36]  83
    x[13]     packing[38]  151
    x[13]     packing[39]  68
    x[13]     packing[40]  57
    x[13]     packing[41]  133
    x[13]     packing[42]  120
    x[13]     packing[43]  2
    x[13]     packing[45]  120
    x[13]     packing[47]  106
    x[13]     packing[49]  95
    x[14]     OBJ       127
    x[14]     packing[3]  86
    x[14]     packing[4]  109
    x[14]     packing[5]  63
    x[14]     packing[6]  124
    x[14]     packing[7]  172
    x[14]     packing[8]  143
    x[14]     packing[12]  88
    x[14]     packing[13]  158
    x[14]     packing[14]  63
    x[14]     packing[15]  153
    x[14]     packing[16]  24
    x[14]     packing[17]  16
    x[14]     packing[18]  177
    x[14]     packing[20]  145
    x[14]     packing[21]  74
    x[14]     packing[23]  162
    x[14]     packing[25]  75
    x[14]     packing[26]  123
    x[14]     packing[27]  101
    x[14]     packing[28]  183
    x[14]     packing[29]  28
    x[14]     packing[30]  17
    x[14]     packing[33]  11
    x[14]     packing[34]  10
    x[14]     packing[36]  7
    x[14]     packing[38]  57
    x[14]     packing[39]  39
    x[14]     packing[40]  28
    x[14]     packing[41]  25
    x[14]     packing[42]  130
    x[14]     packing[43]  97
    x[14]     packing[44]  64
    x[14]     packing[45]  128
    x[14]     packing[46]  33
    x[14]     packing[48]  49
    x[14]     packing[49]  16
    x[14]     R63       1
    x[15]     OBJ       113
    x[15]     packing[0]  78
    x[15]     packing[1]  98
    x[15]     packing[2]  79
    x[15]     packing[4]  103
    x[15]     packing[5]  128
    x[15]     packing[6]  134
    x[15]     packing[8]  191
    x[15]     packing[9]  12
    x[15]     packing[11]  20
    x[15]     packing[13]  154
    x[15]     packing[14]  152
    x[15]     packing[15]  121
    x[15]     packing[16]  173
    x[15]     packing[17]  12
    x[15]     packing[19]  105
    x[15]     packing[21]  76
    x[15]     packing[22]  125
    x[15]     packing[23]  173
    x[15]     packing[24]  138
    x[15]     packing[25]  157
    x[15]     packing[26]  106
    x[15]     packing[27]  162
    x[15]     packing[28]  34
    x[15]     packing[29]  62
    x[15]     packing[30]  20
    x[15]     packing[31]  69
    x[15]     packing[32]  42
    x[15]     packing[33]  50
    x[15]     packing[34]  164
    x[15]     packing[35]  120
    x[15]     packing[36]  129
    x[15]     packing[38]  62
    x[15]     packing[39]  118
    x[15]     packing[40]  101
    x[15]     packing[41]  85
    x[15]     packing[42]  188
    x[15]     packing[43]  50
    x[15]     packing[44]  158
    x[15]     packing[45]  92
    x[15]     packing[48]  168
    x[15]     R63       1
    x[16]     OBJ       74
    x[16]     packing[0]  84
    x[16]     packing[1]  15
    x[16]     packing[2]  170
    x[16]     packing[3]  140
    x[16]     packing[4]  167
    x[16]     packing[5]  132
    x[16]     packing[6]  6
    x[16]     packing[7]  168
    x[16]     packing[8]  146
    x[16]     packing[10]  107
    x[16]     packing[11]  16
    x[16]     packing[12]  143
    x[16]     packing[15]  99
    x[16]     packing[16]  195
    x[16]     packing[17]  103
    x[16]     packing[18]  174
    x[16]     packing[19]  143
    x[16]     packing[20]  40
    x[16]     packing[22]  73
    x[16]     packing[23]  123
    x[16]     packing[25]  158
    x[16]     packing[28]  184
    x[16]     packing[29]  162
    x[16]     packing[30]  106
    x[16]     packing[31]  196
    x[16]     packing[32]  121
    x[16]     packing[33]  115
    x[16]     packing[34]  54
    x[16]     packing[38]  136
    x[16]     packing[39]  12
    x[16]     packing[40]  181
    x[16]     packing[41]  71
    x[16]     packing[42]  23
    x[16]     packing[43]  165
    x[16]     packing[44]  9
    x[16]     packing[45]  95
    x[16]     packing[46]  80
    x[16]     packing[47]  156
    x[16]     packing[48]  20
    x[16]     packing[49]  131
    x[17]     OBJ       64
    x[17]     packing[1]  30
    x[17]     packing[2]  17
    x[17]     packing[3]  53
    x[17]     packing[4]  101
    x[17]     packing[7]  71
    x[17]     packing[8]  109
    x[17]     packing[9]  149
    x[17]     packing[10]  69
    x[17]     packing[11]  192
    x[17]     packing[14]  153
    x[17]     packing[16]  149
    x[17]     packing[18]  154
    x[17]     packing[19]  194
    x[17]     packing[20]  127
    x[17]     packing[21]  59
    x[17]     packing[22]  176
    x[17]     packing[24]  111
    x[17]     packing[25]  78
    x[17]     packing[26]  81
    x[17]     packing[27]  7
    x[17]     packing[29]  185
    x[17]     packing[30]  85
    x[17]     packing[31]  7
    x[17]     packing[34]  35
    x[17]     packing[35]  127
    x[17]     packing[38]  1
    x[17]     packing[39]  110
    x[17]     packing[40]  89
    x[17]     packing[42]  176
    x[17]     packing[43]  2
    x[17]     packing[45]  46
    x[17]     packing[46]  52
    x[17]     packing[47]  33
    x[18]     OBJ       10
    x[18]     packing[0]  60
    x[18]     packing[2]  78
    x[18]     packing[3]  10
    x[18]     packing[4]  106
    x[18]     packing[7]  107
    x[18]     packing[8]  68
    x[18]     packing[13]  27
    x[18]     packing[14]  103
    x[18]     packing[15]  149
    x[18]     packing[17]  65
    x[18]     packing[20]  133
    x[18]     packing[22]  24
    x[18]     packing[24]  62
    x[18]     packing[25]  92
    x[18]     packing[26]  159
    x[18]     packing[27]  10
    x[18]     packing[28]  124
    x[18]     packing[29]  84
    x[18]     packing[31]  126
    x[18]     packing[32]  43
    x[18]     packing[33]  68
    x[18]     packing[34]  68
    x[18]     packing[35]  184
    x[18]     packing[36]  187
    x[18]     packing[37]  118
    x[18]     packing[38]  76
    x[18]     packing[39]  136
    x[18]     packing[40]  119
    x[18]     packing[41]  122
    x[18]     packing[42]  90
    x[18]     packing[45]  160
    x[18]     packing[46]  81
    x[18]     packing[47]  11
    x[18]     packing[48]  95
    x[18]     packing[49]  177
    x[19]     OBJ       123
    x[19]     packing[0]  190
    x[19]     packing[2]  175
    x[19]     packing[3]  110
    x[19]     packing[4]  98
    x[19]     packing[5]  59
    x[19]     packing[7]  9
    x[19]     packing[8]  145
    x[19]     packing[10]  167
    x[19]     packing[11]  183
    x[19]     packing[12]  24
    x[19]     packing[13]  22
    x[19]     packing[14]  77
    x[19]     packing[15]  96
    x[19]     packing[20]  13
    x[19]     packing[21]  199
    x[19]     packing[22]  102
    x[19]     packing[23]  59
    x[19]     packing[25]  190
    x[19]     packing[26]  159
    x[19]     packing[27]  127
    x[19]     packing[28]  158
    x[19]     packing[29]  71
    x[19]     packing[30]  53
    x[19]     packing[31]  28
    x[19]     packing[33]  40
    x[19]     packing[34]  73
    x[19]     packing[35]  80
    x[19]     packing[36]  198
    x[19]     packing[37]  90
    x[19]     packing[38]  81
    x[19]     packing[39]  116
    x[19]     packing[41]  76
    x[19]     packing[42]  106
    x[19]     packing[43]  78
    x[19]     packing[44]  5
    x[19]     packing[45]  68
    x[19]     packing[46]  36
    x[19]     packing[47]  59
    x[19]     packing[49]  108
    x[20]     OBJ       31
    x[20]     packing[0]  21
    x[20]     packing[2]  53
    x[20]     packing[3]  31
    x[20]     packing[4]  41
    x[20]     packing[5]  126
    x[20]     packing[7]  172
    x[20]     packing[8]  116
    x[20]     packing[9]  157
    x[20]     packing[10]  152
    x[20]     packing[11]  108
    x[20]     packing[13]  47
    x[20]     packing[14]  104
    x[20]     packing[15]  184
    x[20]     packing[18]  62
    x[20]     packing[19]  162
    x[20]     packing[20]  175
    x[20]     packing[21]  5
    x[20]     packing[22]  39
    x[20]     packing[23]  180
    x[20]     packing[25]  39
    x[20]     packing[28]  149
    x[20]     packing[29]  102
    x[20]     packing[31]  181
    x[20]     packing[32]  196
    x[20]     packing[35]  132
    x[20]     packing[36]  174
    x[20]     packing[37]  2
    x[20]     packing[39]  102
    x[20]     packing[40]  51
    x[20]     packing[41]  79
    x[20]     packing[42]  168
    x[20]     packing[44]  196
    x[20]     packing[45]  40
    x[20]     packing[46]  26
    x[20]     packing[48]  136
    x[20]     packing[49]  192
    MARKER    'MARKER'                 'INTEND'
RHS
    RHS1      packing[0]  749
    RHS1      packing[1]  338
    RHS1      packing[2]  702
    RHS1      packing[3]  429
    RHS1      packing[4]  679
    RHS1      packing[5]  841
    RHS1      packing[6]  594
    RHS1      packing[7]  840
    RHS1      packing[8]  1015
    RHS1      packing[9]  648
    RHS1      packing[10]  443
    RHS1      packing[11]  648
    RHS1      packing[12]  595
    RHS1      packing[13]  976
    RHS1      packing[14]  958
    RHS1      packing[15]  744
    RHS1      packing[16]  679
    RHS1      packing[17]  499
    RHS1      packing[18]  1139
    RHS1      packing[19]  831
    RHS1      packing[20]  888
    RHS1      packing[21]  777
    RHS1      packing[22]  844
    RHS1      packing[23]  710
    RHS1      packing[24]  499
    RHS1      packing[25]  751
    RHS1      packing[26]  693
    RHS1      packing[27]  682
    RHS1      packing[28]  833
    RHS1      packing[29]  743
    RHS1      packing[30]  545
    RHS1      packing[31]  861
    RHS1      packing[32]  706
    RHS1      packing[33]  433
    RHS1      packing[34]  555
    RHS1      packing[35]  870
    RHS1      packing[36]  787
    RHS1      packing[37]  527
    RHS1      packing[38]  783
    RHS1      packing[39]  707
    RHS1      packing[40]  851
    RHS1      packing[41]  825
    RHS1      packing[42]  928
    RHS1      packing[43]  835
    RHS1      packing[44]  763
    RHS1      packing[45]  879
    RHS1      packing[46]  596
    RHS1      packing[47]  742
    RHS1      packing[48]  602
    RHS1      packing[49]  741
    RHS1      R63       4
BOUNDS
 BV BND1      x[1]    
 BV BND1      x[2]    
 BV BND1      x[3]    
 BV BND1      x[4]    
 BV BND1      x[5]    
 BV BND1      x[6]    
 BV BND1      x[7]    
 BV BND1      x[8]    
 BV BND1      x[9]    
 BV BND1      x[10]   
 BV BND1      x[11]   
 BV BND1      x[12]   
 BV BND1      x[13]   
 BV BND1      x[14]   
 BV BND1      x[15]   
 BV BND1      x[16]   
 BV BND1      x[17]   
 BV BND1      x[18]   
 BV BND1      x[19]   
 BV BND1      x[20]   
ENDATA
